(declare-fun e () String)
(declare-fun g () String)
(declare-fun b () String)
(declare-fun d () String)
(declare-fun a () String)
(declare-fun h () String)
(assert (= a (str.++ b "e" a e "gb")))
(assert (= (str.++ g "dcg" g) "d"))
(assert (= (str.++ "b" b) (str.++ "h" d "g" h "fe")))

(check-sat)
